Traveling Salesman Problem/TSP_generados/Aleatorio1621103447_14.tsp
NAME: Aleatorio1621103447_14.tsp
COMMENT: Randomly generated scenario
TYPE: TSP
DIMENSION: 14
EDGE_WEIGHT_TYPE: ATT
NODE_COORD_SECTION
1 8.14 39.64
2 28.68 14.09
3 38.17 21.75
4 23.89 48.17
5 37.31 13.19
6 41.27 30.11
7 45.9 14.37
8 30.39 21.43
9 2.6 1.72
10 3.3 5.8
11 27.76 18.16
12 28.99 5.0
13 6.39 30.36
14 38.16 28.92
