Traveling Salesman Problem/TSP_generados/Aleatorio1621103447_14.opt.tour
NAME: Aleatorio1621103447_14.opt.tour
COMMENT: Optimal solution for Aleatorio1621103447_14 (165.9883619359909)
TYPE: TOUR
DIMENSION: 14
TOUR_SECTION
1 4 6 14 3 7 5 8 11 2 12 9 10 13
-1
EOF
